[[59, 66, 11, 65, 38, 10, 58, 72, 39, 9, 31, 25, 55, 18, 50], [32, 44, 3, 40, 12, 17, 51, 6, 33, 63, 16, 24, 49, 23], [56, 41, 43, 42, 64, 22, 62, 73, 2, 30, 74, 28, 61], [21, 48, 47, 36, 69, 71, 60, 70, 20, 37, 5, 15, 57], [13, 54, 52, 27, 29, 45, 4, 68, 75, 76, 26, 67, 34, 46, 7, 8, 35, 19, 14, 53]]